c nIsolatedPIs 52
c maxPI 83
p cnf 353 811
c gate 84 -54 -78 0
-54 -84 0
-78 -84 0
54 78 84 0
c gate 85 -52 78 0
-52 -85 0
78 -85 0
52 -78 85 0
c gate 86 77 -85 0
77 -86 0
-85 -86 0
-77 85 86 0
c gate 87 -84 86 0
-84 -87 0
86 -87 0
84 -86 87 0
c gate 88 -55 -78 0
-55 -88 0
-78 -88 0
55 78 88 0
c gate 89 -53 78 0
-53 -89 0
78 -89 0
53 -78 89 0
c gate 90 -88 -89 0
-88 -90 0
-89 -90 0
88 89 90 0
c gate 91 -77 90 0
-77 -91 0
90 -91 0
77 -90 91 0
c gate 92 -80 -91 0
-80 -92 0
-91 -92 0
80 91 92 0
c gate 93 -87 92 0
-87 -93 0
92 -93 0
87 -92 93 0
c gate 94 -44 78 0
-44 -94 0
78 -94 0
44 -78 94 0
c gate 95 -46 -78 0
-46 -95 0
-78 -95 0
46 78 95 0
c gate 96 -94 -95 0
-94 -96 0
-95 -96 0
94 95 96 0
c gate 97 77 96 0
77 -97 0
96 -97 0
-77 -96 97 0
c gate 98 -47 -78 0
-47 -98 0
-78 -98 0
47 78 98 0
c gate 99 -45 78 0
-45 -99 0
78 -99 0
45 -78 99 0
c gate 100 -98 -99 0
-98 -100 0
-99 -100 0
98 99 100 0
c gate 101 -77 100 0
-77 -101 0
100 -101 0
77 -100 101 0
c gate 102 80 -101 0
80 -102 0
-101 -102 0
-80 101 102 0
c gate 103 -97 102 0
-97 -103 0
102 -103 0
97 -102 103 0
c gate 104 -93 -103 0
-93 -104 0
-103 -104 0
93 103 104 0
c gate 105 79 -104 0
79 -105 0
-104 -105 0
-79 104 105 0
c gate 106 -50 -78 0
-50 -106 0
-78 -106 0
50 78 106 0
c gate 107 -48 78 0
-48 -107 0
78 -107 0
48 -78 107 0
c gate 108 77 -107 0
77 -108 0
-107 -108 0
-77 107 108 0
c gate 109 -106 108 0
-106 -109 0
108 -109 0
106 -108 109 0
c gate 110 -51 -78 0
-51 -110 0
-78 -110 0
51 78 110 0
c gate 111 -49 78 0
-49 -111 0
78 -111 0
49 -78 111 0
c gate 112 -110 -111 0
-110 -112 0
-111 -112 0
110 111 112 0
c gate 113 -77 112 0
-77 -113 0
112 -113 0
77 -112 113 0
c gate 114 80 -113 0
80 -114 0
-113 -114 0
-80 113 114 0
c gate 115 -109 114 0
-109 -115 0
114 -115 0
109 -114 115 0
c gate 116 -58 -78 0
-58 -116 0
-78 -116 0
58 78 116 0
c gate 117 -56 78 0
-56 -117 0
78 -117 0
56 -78 117 0
c gate 118 77 -117 0
77 -118 0
-117 -118 0
-77 117 118 0
c gate 119 -116 118 0
-116 -119 0
118 -119 0
116 -118 119 0
c gate 120 -59 -78 0
-59 -120 0
-78 -120 0
59 78 120 0
c gate 121 -57 78 0
-57 -121 0
78 -121 0
57 -78 121 0
c gate 122 -120 -121 0
-120 -122 0
-121 -122 0
120 121 122 0
c gate 123 -77 122 0
-77 -123 0
122 -123 0
77 -122 123 0
c gate 124 -80 -123 0
-80 -124 0
-123 -124 0
80 123 124 0
c gate 125 -119 124 0
-119 -125 0
124 -125 0
119 -124 125 0
c gate 126 -115 -125 0
-115 -126 0
-125 -126 0
115 125 126 0
c gate 127 -79 -126 0
-79 -127 0
-126 -127 0
79 126 127 0
c gate 128 82 -127 0
82 -128 0
-127 -128 0
-82 127 128 0
c gate 129 -105 128 0
-105 -129 0
128 -129 0
105 -128 129 0
c gate 130 61 78 0
61 -130 0
78 -130 0
-61 -78 130 0
c gate 131 63 -78 0
63 -131 0
-78 -131 0
-63 78 131 0
c gate 132 77 -131 0
77 -132 0
-131 -132 0
-77 131 132 0
c gate 133 -130 132 0
-130 -133 0
132 -133 0
130 -132 133 0
c gate 134 64 -78 0
64 -134 0
-78 -134 0
-64 78 134 0
c gate 135 62 78 0
62 -135 0
78 -135 0
-62 -78 135 0
c gate 136 -77 -135 0
-77 -136 0
-135 -136 0
77 135 136 0
c gate 137 -134 136 0
-134 -137 0
136 -137 0
134 -136 137 0
c gate 138 -133 -137 0
-133 -138 0
-137 -138 0
133 137 138 0
c gate 139 80 -138 0
80 -139 0
-138 -139 0
-80 138 139 0
c gate 140 70 78 0
70 -140 0
78 -140 0
-70 -78 140 0
c gate 141 72 -78 0
72 -141 0
-78 -141 0
-72 78 141 0
c gate 142 -77 -141 0
-77 -142 0
-141 -142 0
77 141 142 0
c gate 143 -140 142 0
-140 -143 0
142 -143 0
140 -142 143 0
c gate 144 71 -78 0
71 -144 0
-78 -144 0
-71 78 144 0
c gate 145 69 78 0
69 -145 0
78 -145 0
-69 -78 145 0
c gate 146 77 -145 0
77 -146 0
-145 -146 0
-77 145 146 0
c gate 147 -144 146 0
-144 -147 0
146 -147 0
144 -146 147 0
c gate 148 -143 -147 0
-143 -148 0
-147 -148 0
143 147 148 0
c gate 149 -80 -148 0
-80 -149 0
-148 -149 0
80 148 149 0
c gate 150 79 -149 0
79 -150 0
-149 -150 0
-79 149 150 0
c gate 151 -139 150 0
-139 -151 0
150 -151 0
139 -150 151 0
c gate 152 65 78 0
65 -152 0
78 -152 0
-65 -78 152 0
c gate 153 67 -78 0
67 -153 0
-78 -153 0
-67 78 153 0
c gate 154 77 -153 0
77 -154 0
-153 -154 0
-77 153 154 0
c gate 155 -152 154 0
-152 -155 0
154 -155 0
152 -154 155 0
c gate 156 68 -78 0
68 -156 0
-78 -156 0
-68 78 156 0
c gate 157 66 78 0
66 -157 0
78 -157 0
-66 -78 157 0
c gate 158 -77 -157 0
-77 -158 0
-157 -158 0
77 157 158 0
c gate 159 -156 158 0
-156 -159 0
158 -159 0
156 -158 159 0
c gate 160 -155 -159 0
-155 -160 0
-159 -160 0
155 159 160 0
c gate 161 80 -160 0
80 -161 0
-160 -161 0
-80 160 161 0
c gate 162 74 78 0
74 -162 0
78 -162 0
-74 -78 162 0
c gate 163 76 -78 0
76 -163 0
-78 -163 0
-76 78 163 0
c gate 164 -77 -163 0
-77 -164 0
-163 -164 0
77 163 164 0
c gate 165 -162 164 0
-162 -165 0
164 -165 0
162 -164 165 0
c gate 166 75 -78 0
75 -166 0
-78 -166 0
-75 78 166 0
c gate 167 73 78 0
73 -167 0
78 -167 0
-73 -78 167 0
c gate 168 77 -167 0
77 -168 0
-167 -168 0
-77 167 168 0
c gate 169 -166 168 0
-166 -169 0
168 -169 0
166 -168 169 0
c gate 170 -165 -169 0
-165 -170 0
-169 -170 0
165 169 170 0
c gate 171 -80 -170 0
-80 -171 0
-170 -171 0
80 170 171 0
c gate 172 -79 -171 0
-79 -172 0
-171 -172 0
79 171 172 0
c gate 173 -161 172 0
-161 -173 0
172 -173 0
161 -172 173 0
c gate 174 -151 -173 0
-151 -174 0
-173 -174 0
151 173 174 0
c gate 175 -82 -174 0
-82 -175 0
-174 -175 0
82 174 175 0
c gate 176 81 -175 0
81 -176 0
-175 -176 0
-81 175 176 0
c gate 177 -129 176 0
-129 -177 0
176 -177 0
129 -176 177 0
c gate 178 -83 177 0
-83 -178 0
177 -178 0
83 -177 178 0
c gate 179 30 -78 0
30 -179 0
-78 -179 0
-30 78 179 0
c gate 180 28 78 0
28 -180 0
78 -180 0
-28 -78 180 0
c gate 181 -77 -180 0
-77 -181 0
-180 -181 0
77 180 181 0
c gate 182 -179 181 0
-179 -182 0
181 -182 0
179 -181 182 0
c gate 183 29 -78 0
29 -183 0
-78 -183 0
-29 78 183 0
c gate 184 27 78 0
27 -184 0
78 -184 0
-27 -78 184 0
c gate 185 77 -184 0
77 -185 0
-184 -185 0
-77 184 185 0
c gate 186 -183 185 0
-183 -186 0
185 -186 0
183 -185 186 0
c gate 187 -80 -186 0
-80 -187 0
-186 -187 0
80 186 187 0
c gate 188 -182 187 0
-182 -188 0
187 -188 0
182 -187 188 0
c gate 189 21 -78 0
21 -189 0
-78 -189 0
-21 78 189 0
c gate 190 19 78 0
19 -190 0
78 -190 0
-19 -78 190 0
c gate 191 77 -190 0
77 -191 0
-190 -191 0
-77 190 191 0
c gate 192 -189 191 0
-189 -192 0
191 -192 0
189 -191 192 0
c gate 193 22 -78 0
22 -193 0
-78 -193 0
-22 78 193 0
c gate 194 20 78 0
20 -194 0
78 -194 0
-20 -78 194 0
c gate 195 -77 -194 0
-77 -195 0
-194 -195 0
77 194 195 0
c gate 196 -193 195 0
-193 -196 0
195 -196 0
193 -195 196 0
c gate 197 80 -196 0
80 -197 0
-196 -197 0
-80 196 197 0
c gate 198 -192 197 0
-192 -198 0
197 -198 0
192 -197 198 0
c gate 199 -79 -198 0
-79 -199 0
-198 -199 0
79 198 199 0
c gate 200 -188 199 0
-188 -200 0
199 -200 0
188 -199 200 0
c gate 201 26 -78 0
26 -201 0
-78 -201 0
-26 78 201 0
c gate 202 24 78 0
24 -202 0
78 -202 0
-24 -78 202 0
c gate 203 -77 -202 0
-77 -203 0
-202 -203 0
77 202 203 0
c gate 204 -201 203 0
-201 -204 0
203 -204 0
201 -203 204 0
c gate 205 25 -78 0
25 -205 0
-78 -205 0
-25 78 205 0
c gate 206 23 78 0
23 -206 0
78 -206 0
-23 -78 206 0
c gate 207 77 -206 0
77 -207 0
-206 -207 0
-77 206 207 0
c gate 208 -205 207 0
-205 -208 0
207 -208 0
205 -207 208 0
c gate 209 -80 -208 0
-80 -209 0
-208 -209 0
80 208 209 0
c gate 210 -204 209 0
-204 -210 0
209 -210 0
204 -209 210 0
c gate 211 17 -78 0
17 -211 0
-78 -211 0
-17 78 211 0
c gate 212 15 78 0
15 -212 0
78 -212 0
-15 -78 212 0
c gate 213 77 -212 0
77 -213 0
-212 -213 0
-77 212 213 0
c gate 214 -211 213 0
-211 -214 0
213 -214 0
211 -213 214 0
c gate 215 18 -78 0
18 -215 0
-78 -215 0
-18 78 215 0
c gate 216 16 78 0
16 -216 0
78 -216 0
-16 -78 216 0
c gate 217 -77 -216 0
-77 -217 0
-216 -217 0
77 216 217 0
c gate 218 -215 217 0
-215 -218 0
217 -218 0
215 -217 218 0
c gate 219 80 -218 0
80 -219 0
-218 -219 0
-80 218 219 0
c gate 220 -214 219 0
-214 -220 0
219 -220 0
214 -219 220 0
c gate 221 79 -220 0
79 -221 0
-220 -221 0
-79 220 221 0
c gate 222 -210 221 0
-210 -222 0
221 -222 0
210 -221 222 0
c gate 223 -200 -222 0
-200 -223 0
-222 -223 0
200 222 223 0
c gate 224 82 -223 0
82 -224 0
-223 -224 0
-82 223 224 0
c gate 225 77 100 0
77 -225 0
100 -225 0
-77 -100 225 0
c gate 226 -46 78 0
-46 -226 0
78 -226 0
46 -78 226 0
c gate 227 -48 -78 0
-48 -227 0
-78 -227 0
48 78 227 0
c gate 228 -77 -227 0
-77 -228 0
-227 -228 0
77 227 228 0
c gate 229 -226 228 0
-226 -229 0
228 -229 0
226 -228 229 0
c gate 230 80 -229 0
80 -230 0
-229 -230 0
-80 229 230 0
c gate 231 -225 230 0
-225 -231 0
230 -231 0
225 -230 231 0
c gate 232 77 90 0
77 -232 0
90 -232 0
-77 -90 232 0
c gate 233 -54 78 0
-54 -233 0
78 -233 0
54 -78 233 0
c gate 234 -56 -78 0
-56 -234 0
-78 -234 0
56 78 234 0
c gate 235 -77 -234 0
-77 -235 0
-234 -235 0
77 234 235 0
c gate 236 -233 235 0
-233 -236 0
235 -236 0
233 -235 236 0
c gate 237 -80 -236 0
-80 -237 0
-236 -237 0
80 236 237 0
c gate 238 -232 237 0
-232 -238 0
237 -238 0
232 -237 238 0
c gate 239 79 -238 0
79 -239 0
-238 -239 0
-79 238 239 0
c gate 240 -231 239 0
-231 -240 0
239 -240 0
231 -239 240 0
c gate 241 77 122 0
77 -241 0
122 -241 0
-77 -122 241 0
c gate 242 -58 78 0
-58 -242 0
78 -242 0
58 -78 242 0
c gate 243 -60 -78 0
-60 -243 0
-78 -243 0
60 78 243 0
c gate 244 -77 -243 0
-77 -244 0
-243 -244 0
77 243 244 0
c gate 245 -242 244 0
-242 -245 0
244 -245 0
242 -244 245 0
c gate 246 -80 -245 0
-80 -246 0
-245 -246 0
80 245 246 0
c gate 247 -241 246 0
-241 -247 0
246 -247 0
241 -246 247 0
c gate 248 77 112 0
77 -248 0
112 -248 0
-77 -112 248 0
c gate 249 -50 78 0
-50 -249 0
78 -249 0
50 -78 249 0
c gate 250 -52 -78 0
-52 -250 0
-78 -250 0
52 78 250 0
c gate 251 -77 -250 0
-77 -251 0
-250 -251 0
77 250 251 0
c gate 252 -249 251 0
-249 -252 0
251 -252 0
249 -251 252 0
c gate 253 80 -252 0
80 -253 0
-252 -253 0
-80 252 253 0
c gate 254 -248 253 0
-248 -254 0
253 -254 0
248 -253 254 0
c gate 255 -79 -254 0
-79 -255 0
-254 -255 0
79 254 255 0
c gate 256 -247 255 0
-247 -256 0
255 -256 0
247 -255 256 0
c gate 257 -82 -256 0
-82 -257 0
-256 -257 0
82 256 257 0
c gate 258 -240 257 0
-240 -258 0
257 -258 0
240 -257 258 0
c gate 259 81 -258 0
81 -259 0
-258 -259 0
-81 258 259 0
c gate 260 -224 259 0
-224 -260 0
259 -260 0
224 -259 260 0
c gate 261 15 -78 0
15 -261 0
-78 -261 0
-15 78 261 0
c gate 262 13 78 0
13 -262 0
78 -262 0
-13 -78 262 0
c gate 263 77 -262 0
77 -263 0
-262 -263 0
-77 262 263 0
c gate 264 -261 263 0
-261 -264 0
263 -264 0
261 -263 264 0
c gate 265 14 78 0
14 -265 0
78 -265 0
-14 -78 265 0
c gate 266 16 -78 0
16 -266 0
-78 -266 0
-16 78 266 0
c gate 267 -77 -266 0
-77 -267 0
-266 -267 0
77 266 267 0
c gate 268 -265 267 0
-265 -268 0
267 -268 0
265 -267 268 0
c gate 269 -80 -268 0
-80 -269 0
-268 -269 0
80 268 269 0
c gate 270 -264 269 0
-264 -270 0
269 -270 0
264 -269 270 0
c gate 271 8 -78 0
8 -271 0
-78 -271 0
-8 78 271 0
c gate 272 6 78 0
6 -272 0
78 -272 0
-6 -78 272 0
c gate 273 -77 -272 0
-77 -273 0
-272 -273 0
77 272 273 0
c gate 274 -271 273 0
-271 -274 0
273 -274 0
271 -273 274 0
c gate 275 5 78 0
5 -275 0
78 -275 0
-5 -78 275 0
c gate 276 7 -78 0
7 -276 0
-78 -276 0
-7 78 276 0
c gate 277 77 -276 0
77 -277 0
-276 -277 0
-77 276 277 0
c gate 278 -275 277 0
-275 -278 0
277 -278 0
275 -277 278 0
c gate 279 80 -278 0
80 -279 0
-278 -279 0
-80 278 279 0
c gate 280 -274 279 0
-274 -280 0
279 -280 0
274 -279 280 0
c gate 281 -79 -280 0
-79 -281 0
-280 -281 0
79 280 281 0
c gate 282 -270 281 0
-270 -282 0
281 -282 0
270 -281 282 0
c gate 283 11 -78 0
11 -283 0
-78 -283 0
-11 78 283 0
c gate 284 9 78 0
9 -284 0
78 -284 0
-9 -78 284 0
c gate 285 77 -284 0
77 -285 0
-284 -285 0
-77 284 285 0
c gate 286 -283 285 0
-283 -286 0
285 -286 0
283 -285 286 0
c gate 287 10 78 0
10 -287 0
78 -287 0
-10 -78 287 0
c gate 288 12 -78 0
12 -288 0
-78 -288 0
-12 78 288 0
c gate 289 -77 -288 0
-77 -289 0
-288 -289 0
77 288 289 0
c gate 290 -287 289 0
-287 -290 0
289 -290 0
287 -289 290 0
c gate 291 -80 -290 0
-80 -291 0
-290 -291 0
80 290 291 0
c gate 292 -286 291 0
-286 -292 0
291 -292 0
286 -291 292 0
c gate 293 4 -78 0
4 -293 0
-78 -293 0
-4 78 293 0
c gate 294 2 78 0
2 -294 0
78 -294 0
-2 -78 294 0
c gate 295 -77 -294 0
-77 -295 0
-294 -295 0
77 294 295 0
c gate 296 -293 295 0
-293 -296 0
295 -296 0
293 -295 296 0
c gate 297 1 78 0
1 -297 0
78 -297 0
-1 -78 297 0
c gate 298 3 -78 0
3 -298 0
-78 -298 0
-3 78 298 0
c gate 299 77 -298 0
77 -299 0
-298 -299 0
-77 298 299 0
c gate 300 -297 299 0
-297 -300 0
299 -300 0
297 -299 300 0
c gate 301 80 -300 0
80 -301 0
-300 -301 0
-80 300 301 0
c gate 302 -296 301 0
-296 -302 0
301 -302 0
296 -301 302 0
c gate 303 79 -302 0
79 -303 0
-302 -303 0
-79 302 303 0
c gate 304 -292 303 0
-292 -304 0
303 -304 0
292 -303 304 0
c gate 305 -282 -304 0
-282 -305 0
-304 -305 0
282 304 305 0
c gate 306 82 -305 0
82 -306 0
-305 -306 0
-82 305 306 0
c gate 307 41 -78 0
41 -307 0
-78 -307 0
-41 78 307 0
c gate 308 39 78 0
39 -308 0
78 -308 0
-39 -78 308 0
c gate 309 77 -308 0
77 -309 0
-308 -309 0
-77 308 309 0
c gate 310 -307 309 0
-307 -310 0
309 -310 0
307 -309 310 0
c gate 311 40 78 0
40 -311 0
78 -311 0
-40 -78 311 0
c gate 312 42 -78 0
42 -312 0
-78 -312 0
-42 78 312 0
c gate 313 -77 -312 0
-77 -313 0
-312 -313 0
77 312 313 0
c gate 314 -311 313 0
-311 -314 0
313 -314 0
311 -313 314 0
c gate 315 -80 -314 0
-80 -315 0
-314 -315 0
80 314 315 0
c gate 316 -310 315 0
-310 -316 0
315 -316 0
310 -315 316 0
c gate 317 34 -78 0
34 -317 0
-78 -317 0
-34 78 317 0
c gate 318 32 78 0
32 -318 0
78 -318 0
-32 -78 318 0
c gate 319 -77 -318 0
-77 -319 0
-318 -319 0
77 318 319 0
c gate 320 -317 319 0
-317 -320 0
319 -320 0
317 -319 320 0
c gate 321 31 78 0
31 -321 0
78 -321 0
-31 -78 321 0
c gate 322 33 -78 0
33 -322 0
-78 -322 0
-33 78 322 0
c gate 323 77 -322 0
77 -323 0
-322 -323 0
-77 322 323 0
c gate 324 -321 323 0
-321 -324 0
323 -324 0
321 -323 324 0
c gate 325 80 -324 0
80 -325 0
-324 -325 0
-80 324 325 0
c gate 326 -320 325 0
-320 -326 0
325 -326 0
320 -325 326 0
c gate 327 79 -326 0
79 -327 0
-326 -327 0
-79 326 327 0
c gate 328 -316 327 0
-316 -328 0
327 -328 0
316 -327 328 0
c gate 329 -43 78 0
-43 -329 0
78 -329 0
43 -78 329 0
c gate 330 -45 -78 0
-45 -330 0
-78 -330 0
45 78 330 0
c gate 331 -329 -330 0
-329 -331 0
-330 -331 0
329 330 331 0
c gate 332 77 -331 0
77 -332 0
-331 -332 0
-77 331 332 0
c gate 333 -77 -96 0
-77 -333 0
-96 -333 0
77 96 333 0
c gate 334 -80 -333 0
-80 -334 0
-333 -334 0
80 333 334 0
c gate 335 -332 334 0
-332 -335 0
334 -335 0
332 -334 335 0
c gate 336 -36 78 0
-36 -336 0
78 -336 0
36 -78 336 0
c gate 337 -38 -78 0
-38 -337 0
-78 -337 0
38 78 337 0
c gate 338 -77 -337 0
-77 -338 0
-337 -338 0
77 337 338 0
c gate 339 -336 338 0
-336 -339 0
338 -339 0
336 -338 339 0
c gate 340 -37 -78 0
-37 -340 0
-78 -340 0
37 78 340 0
c gate 341 -35 78 0
-35 -341 0
78 -341 0
35 -78 341 0
c gate 342 77 -341 0
77 -342 0
-341 -342 0
-77 341 342 0
c gate 343 -340 342 0
-340 -343 0
342 -343 0
340 -342 343 0
c gate 344 -339 -343 0
-339 -344 0
-343 -344 0
339 343 344 0
c gate 345 80 -344 0
80 -345 0
-344 -345 0
-80 344 345 0
c gate 346 -79 -345 0
-79 -346 0
-345 -346 0
79 345 346 0
c gate 347 -335 346 0
-335 -347 0
346 -347 0
335 -346 347 0
c gate 348 -328 -347 0
-328 -348 0
-347 -348 0
328 347 348 0
c gate 349 -82 -348 0
-82 -349 0
-348 -349 0
82 348 349 0
c gate 350 81 -349 0
81 -350 0
-349 -350 0
-81 349 350 0
c gate 351 -306 350 0
-306 -351 0
350 -351 0
306 -350 351 0
c gate 352 -260 -351 0
-260 -352 0
-351 -352 0
260 351 352 0
c gate 353 178 -352 0
178 -353 0
-352 -353 0
-178 352 353 0
c PO
353 0
